227
400
319	5
318	3
317	5
316	3
314	3
313	3
312	4
310	1
309	4
308	4
307	5
306	3
305	2
304	4
302	3
301	1
300	2
299	4
298	3
297	2
296	4
295	3
294	2
293	5
292	6
291	3
290	3
288	5
287	5
286	2
285	2
284	2
283	2
282	4
281	7
280	6
279	3
278	3
277	3
276	2
275	4
274	1
273	3
272	3
271	5
270	3
269	2
268	2
267	7
266	2
265	6
263	4
262	4
261	2
260	5
258	4
257	4
256	7
255	6
254	4
253	6
252	5
251	2
250	3
249	3
248	1
247	5
246	4
245	1
244	2
243	2
242	3
241	3
240	4
239	2
238	3
237	1
235	1
234	2
233	1
232	3
231	2
230	2
229	8
228	2
227	2
225	5
223	4
222	2
221	5
220	3
219	4
218	2
217	5
216	6
215	4
214	2
213	3
212	1
211	3
210	4
209	7
208	3
207	2
206	3
205	4
204	1
203	4
202	1
201	4
200	2
199	3
198	2
197	3
196	4
195	4
194	5
193	3
192	3
191	3
190	6
189	4
188	3
187	2
186	3
185	2
184	3
183	6
182	5
181	4
180	1
179	5
178	5
177	5
176	3
175	4
174	2
173	4
172	2
171	3
169	5
168	2
167	4
166	4
165	5
164	5
163	4
162	3
161	2
160	2
159	5
158	1
157	5
156	1
155	2
154	3
153	2
152	3
151	4
150	2
149	2
148	2
147	4
146	8
145	3
144	5
143	3
142	1
141	1
140	7
139	2
138	1
137	6
136	3
135	1
134	2
133	3
132	2
131	4
130	3
128	3
127	1
126	4
124	5
123	4
122	3
121	1
120	3
119	2
118	7
117	3
116	2
115	2
114	8
113	7
112	5
110	4
109	5
108	4
107	2
106	5
105	3
104	1
103	3
102	2
101	1
100	3
99	3
98	2
97	2
96	3
95	3
94	1
93	7
92	1
91	2
90	3
89	2
88	1
87	3
86	2
85	3
84	3
83	3
82	5
81	3
80	5
